60 91 45 78 1 7 5 94 63 27 37 46 8 40 51 38 85 20 36 4 13 62 93 22 68 34 98 48 77 11 2 88 75 33 99 14 28 95 55 82 61 89 17 87 41 71 39 92 25 65 16 32 79 81 9 24 6 42 23 31 15 80 59 18 69 35 12 52 10 72 50 83 57 21 90 66 73 49 58 67 44 29 54 84 97 3 26 43 56 74 70 64 30 0 19 96 86 76 47 53 

